p cnf 540 1375
c uncontrollable inputs:
a 20 21 22 23 24 25 26 27 28 29 30 31 32 33 34 35 36 37 38 0
c state variables:
a 39 40 41 42 43 44 45 46 47 48 49 50 51 52 53 54 55 56 57 58 59 0
c next state variables:
a 60 61 62 63 64 65 66 67 68 69 70 71 72 73 74 75 76 77 78 79 80 0
c controllable inputs
d 1 20 21 22 23 24 25 26 27 28 29 30 31 32 33 34 35 36 37 38 39 40 41 42 43 44 45 46 47 48 49 50 51 52 53 54 55 56 57 58 59 0
d 2 20 21 22 23 24 25 26 27 28 29 30 31 32 33 34 35 36 37 38 39 40 41 42 43 44 45 46 47 48 49 50 51 52 53 54 55 56 57 58 59 0
d 3 20 21 22 23 24 25 26 27 28 29 30 31 32 33 34 35 36 37 38 39 40 41 42 43 44 45 46 47 48 49 50 51 52 53 54 55 56 57 58 59 0
d 4 20 21 22 23 24 25 26 27 28 29 30 31 32 33 34 35 36 37 38 39 40 41 42 43 44 45 46 47 48 49 50 51 52 53 54 55 56 57 58 59 0
d 5 20 21 22 23 24 25 26 27 28 29 30 31 32 33 34 35 36 37 38 39 40 41 42 43 44 45 46 47 48 49 50 51 52 53 54 55 56 57 58 59 0
d 6 20 21 22 23 24 25 26 27 28 29 30 31 32 33 34 35 36 37 38 39 40 41 42 43 44 45 46 47 48 49 50 51 52 53 54 55 56 57 58 59 0
d 7 20 21 22 23 24 25 26 27 28 29 30 31 32 33 34 35 36 37 38 39 40 41 42 43 44 45 46 47 48 49 50 51 52 53 54 55 56 57 58 59 0
d 8 20 21 22 23 24 25 26 27 28 29 30 31 32 33 34 35 36 37 38 39 40 41 42 43 44 45 46 47 48 49 50 51 52 53 54 55 56 57 58 59 0
d 9 20 21 22 23 24 25 26 27 28 29 30 31 32 33 34 35 36 37 38 39 40 41 42 43 44 45 46 47 48 49 50 51 52 53 54 55 56 57 58 59 0
d 10 20 21 22 23 24 25 26 27 28 29 30 31 32 33 34 35 36 37 38 39 40 41 42 43 44 45 46 47 48 49 50 51 52 53 54 55 56 57 58 59 0
d 11 20 21 22 23 24 25 26 27 28 29 30 31 32 33 34 35 36 37 38 39 40 41 42 43 44 45 46 47 48 49 50 51 52 53 54 55 56 57 58 59 0
d 12 20 21 22 23 24 25 26 27 28 29 30 31 32 33 34 35 36 37 38 39 40 41 42 43 44 45 46 47 48 49 50 51 52 53 54 55 56 57 58 59 0
d 13 20 21 22 23 24 25 26 27 28 29 30 31 32 33 34 35 36 37 38 39 40 41 42 43 44 45 46 47 48 49 50 51 52 53 54 55 56 57 58 59 0
d 14 20 21 22 23 24 25 26 27 28 29 30 31 32 33 34 35 36 37 38 39 40 41 42 43 44 45 46 47 48 49 50 51 52 53 54 55 56 57 58 59 0
d 15 20 21 22 23 24 25 26 27 28 29 30 31 32 33 34 35 36 37 38 39 40 41 42 43 44 45 46 47 48 49 50 51 52 53 54 55 56 57 58 59 0
d 16 20 21 22 23 24 25 26 27 28 29 30 31 32 33 34 35 36 37 38 39 40 41 42 43 44 45 46 47 48 49 50 51 52 53 54 55 56 57 58 59 0
d 17 20 21 22 23 24 25 26 27 28 29 30 31 32 33 34 35 36 37 38 39 40 41 42 43 44 45 46 47 48 49 50 51 52 53 54 55 56 57 58 59 0
d 18 20 21 22 23 24 25 26 27 28 29 30 31 32 33 34 35 36 37 38 39 40 41 42 43 44 45 46 47 48 49 50 51 52 53 54 55 56 57 58 59 0
d 19 20 21 22 23 24 25 26 27 28 29 30 31 32 33 34 35 36 37 38 39 40 41 42 43 44 45 46 47 48 49 50 51 52 53 54 55 56 57 58 59 0
c winning region (state)
d 81 39 40 41 42 43 44 45 46 47 48 49 50 51 52 53 54 55 56 57 58 59 0
c winning region (next state)
d 82 60 61 62 63 64 65 66 67 68 69 70 71 72 73 74 75 76 77 78 79 80 0
c tseitin variables
e 83 84 85 86 87 88 89 90 91 92 93 94 95 96 97 98 99 100 101 102 103 104 105 106 107 108 109 110 111 112 113 114 115 116 117 118 119 120 121 122 123 124 125 126 127 128 129 130 131 132 133 134 135 136 137 138 139 140 141 142 143 144 145 146 147 148 149 150 151 152 153 154 155 156 157 158 159 160 161 162 163 164 165 166 167 168 169 170 171 172 173 174 175 176 177 178 179 180 181 182 183 184 185 186 187 188 189 190 191 192 193 194 195 196 197 198 199 200 201 202 203 204 205 206 207 208 209 210 211 212 213 214 215 216 217 218 219 220 221 222 223 224 225 226 227 228 229 230 231 232 233 234 235 236 237 238 239 240 241 242 243 244 245 246 247 248 249 250 251 252 253 254 255 256 257 258 259 260 261 262 263 264 265 266 267 268 269 270 271 272 273 274 275 276 277 278 279 280 281 282 283 284 285 286 287 288 289 290 291 292 293 294 295 296 297 298 299 300 301 302 303 304 305 306 307 308 309 310 311 312 313 314 315 316 317 318 319 320 321 322 323 324 325 326 327 328 329 330 331 332 333 334 335 336 337 338 339 340 341 342 343 344 345 346 347 348 349 350 351 352 353 354 355 356 357 358 359 360 361 362 363 364 365 366 367 368 369 370 371 372 373 374 375 376 377 378 379 380 381 382 383 384 385 386 387 388 389 390 391 392 393 394 395 396 397 398 399 400 401 402 403 404 405 406 407 408 409 410 411 412 413 414 415 416 417 418 419 420 421 422 423 424 425 426 427 428 429 430 431 432 433 434 435 436 437 438 439 440 441 442 443 444 445 446 447 448 449 450 451 452 453 454 455 456 457 458 459 460 461 462 463 464 465 466 467 468 469 470 471 472 473 474 475 476 477 478 479 480 481 482 483 484 485 486 487 488 489 490 491 492 493 494 495 496 497 498 499 500 501 502 503 504 505 506 507 508 509 510 511 512 513 514 515 516 517 518 519 520 521 522 523 524 525 526 527 528 529 530 531 532 533 534 535 536 537 538 539 540 0
c clauses:
-83 -80 0
-83 59 0
83 80 -59 0
-84 80 0
-84 -59 0
84 -80 59 0
-85 -83 0
-85 -84 0
85 83 84 0
-86 -76 0
-86 55 0
86 76 -55 0
-87 76 0
-87 -55 0
87 -76 55 0
-88 -86 0
-88 -87 0
88 86 87 0
-89 -77 0
-89 56 0
89 77 -56 0
-90 77 0
-90 -56 0
90 -77 56 0
-91 -89 0
-91 -90 0
91 89 90 0
-92 88 0
-92 91 0
92 -88 -91 0
-93 -78 0
-93 57 0
93 78 -57 0
-94 78 0
-94 -57 0
94 -78 57 0
-95 -93 0
-95 -94 0
95 93 94 0
-96 -79 0
-96 58 0
96 79 -58 0
-97 79 0
-97 -58 0
97 -79 58 0
-98 -96 0
-98 -97 0
98 96 97 0
-99 95 0
-99 98 0
99 -95 -98 0
-100 92 0
-100 99 0
100 -92 -99 0
-101 85 0
-101 100 0
101 -85 -100 0
-102 -60 0
-102 39 0
102 60 -39 0
-103 60 0
-103 -39 0
103 -60 39 0
-104 -102 0
-104 -103 0
104 102 103 0
-105 -61 0
-105 40 0
105 61 -40 0
-106 61 0
-106 -40 0
106 -61 40 0
-107 -105 0
-107 -106 0
107 105 106 0
-108 104 0
-108 107 0
108 -104 -107 0
-109 -62 0
-109 41 0
109 62 -41 0
-110 62 0
-110 -41 0
110 -62 41 0
-111 -109 0
-111 -110 0
111 109 110 0
-112 -63 0
-112 42 0
112 63 -42 0
-113 63 0
-113 -42 0
113 -63 42 0
-114 -112 0
-114 -113 0
114 112 113 0
-115 111 0
-115 114 0
115 -111 -114 0
-116 108 0
-116 115 0
116 -108 -115 0
-117 -64 0
-117 43 0
117 64 -43 0
-118 64 0
-118 -43 0
118 -64 43 0
-119 -117 0
-119 -118 0
119 117 118 0
-120 -65 0
-120 44 0
120 65 -44 0
-121 65 0
-121 -44 0
121 -65 44 0
-122 -120 0
-122 -121 0
122 120 121 0
-123 119 0
-123 122 0
123 -119 -122 0
-124 -66 0
-124 45 0
124 66 -45 0
-125 66 0
-125 -45 0
125 -66 45 0
-126 -124 0
-126 -125 0
126 124 125 0
-127 -67 0
-127 46 0
127 67 -46 0
-128 67 0
-128 -46 0
128 -67 46 0
-129 -127 0
-129 -128 0
129 127 128 0
-130 126 0
-130 129 0
130 -126 -129 0
-131 123 0
-131 130 0
131 -123 -130 0
-132 116 0
-132 131 0
132 -116 -131 0
-133 -68 0
-133 47 0
133 68 -47 0
-134 68 0
-134 -47 0
134 -68 47 0
-135 -133 0
-135 -134 0
135 133 134 0
-136 -69 0
-136 48 0
136 69 -48 0
-137 69 0
-137 -48 0
137 -69 48 0
-138 -136 0
-138 -137 0
138 136 137 0
-139 135 0
-139 138 0
139 -135 -138 0
-140 -70 0
-140 49 0
140 70 -49 0
-141 70 0
-141 -49 0
141 -70 49 0
-142 -140 0
-142 -141 0
142 140 141 0
-143 -71 0
-143 50 0
143 71 -50 0
-144 71 0
-144 -50 0
144 -71 50 0
-145 -143 0
-145 -144 0
145 143 144 0
-146 142 0
-146 145 0
146 -142 -145 0
-147 139 0
-147 146 0
147 -139 -146 0
-148 -72 0
-148 51 0
148 72 -51 0
-149 72 0
-149 -51 0
149 -72 51 0
-150 -148 0
-150 -149 0
150 148 149 0
-151 -73 0
-151 52 0
151 73 -52 0
-152 73 0
-152 -52 0
152 -73 52 0
-153 -151 0
-153 -152 0
153 151 152 0
-154 150 0
-154 153 0
154 -150 -153 0
-155 -74 0
-155 53 0
155 74 -53 0
-156 74 0
-156 -53 0
156 -74 53 0
-157 -155 0
-157 -156 0
157 155 156 0
-158 -75 0
-158 54 0
158 75 -54 0
-159 75 0
-159 -54 0
159 -75 54 0
-160 -158 0
-160 -159 0
160 158 159 0
-161 157 0
-161 160 0
161 -157 -160 0
-162 154 0
-162 161 0
162 -154 -161 0
-163 147 0
-163 162 0
163 -147 -162 0
-164 132 0
-164 163 0
164 -132 -163 0
-165 101 0
-165 164 0
165 -101 -164 0
-166 82 0
-166 -81 0
166 -82 81 0
-167 -82 0
-167 81 0
167 82 -81 0
-168 -166 0
-168 -167 0
168 166 167 0
-169 165 0
-169 -168 0
169 -165 168 0
-170 59 0
-170 39 0
170 -59 -39 0
-171 58 0
-171 39 0
171 -58 -39 0
-172 57 0
-172 39 0
172 -57 -39 0
-173 56 0
-173 39 0
173 -56 -39 0
-174 55 0
-174 39 0
174 -55 -39 0
-175 54 0
-175 39 0
175 -54 -39 0
-176 53 0
-176 39 0
176 -53 -39 0
-177 52 0
-177 39 0
177 -52 -39 0
-178 51 0
-178 39 0
178 -51 -39 0
-179 50 0
-179 39 0
179 -50 -39 0
-180 49 0
-180 39 0
180 -49 -39 0
-181 48 0
-181 39 0
181 -48 -39 0
-182 47 0
-182 39 0
182 -47 -39 0
-183 46 0
-183 39 0
183 -46 -39 0
-184 45 0
-184 39 0
184 -45 -39 0
-185 44 0
-185 39 0
185 -44 -39 0
-186 43 0
-186 39 0
186 -43 -39 0
-187 42 0
-187 39 0
187 -42 -39 0
-188 41 0
-188 39 0
188 -41 -39 0
-189 40 0
-189 39 0
189 -40 -39 0
-190 20 0
-190 189 0
190 -20 -189 0
-191 21 0
-191 190 0
191 -21 -190 0
-192 -188 0
-192 -191 0
192 188 191 0
-193 -21 0
-193 -190 0
193 21 190 0
-194 -192 0
-194 -193 0
194 192 193 0
-195 22 0
-195 194 0
195 -22 -194 0
-196 -187 0
-196 -195 0
196 187 195 0
-197 -22 0
-197 -194 0
197 22 194 0
-198 -196 0
-198 -197 0
198 196 197 0
-199 23 0
-199 198 0
199 -23 -198 0
-200 -186 0
-200 -199 0
200 186 199 0
-201 -23 0
-201 -198 0
201 23 198 0
-202 -200 0
-202 -201 0
202 200 201 0
-203 24 0
-203 202 0
203 -24 -202 0
-204 -185 0
-204 -203 0
204 185 203 0
-205 -24 0
-205 -202 0
205 24 202 0
-206 -204 0
-206 -205 0
206 204 205 0
-207 25 0
-207 206 0
207 -25 -206 0
-208 -184 0
-208 -207 0
208 184 207 0
-209 -25 0
-209 -206 0
209 25 206 0
-210 -208 0
-210 -209 0
210 208 209 0
-211 26 0
-211 210 0
211 -26 -210 0
-212 -183 0
-212 -211 0
212 183 211 0
-213 -26 0
-213 -210 0
213 26 210 0
-214 -212 0
-214 -213 0
214 212 213 0
-215 27 0
-215 214 0
215 -27 -214 0
-216 -182 0
-216 -215 0
216 182 215 0
-217 -27 0
-217 -214 0
217 27 214 0
-218 -216 0
-218 -217 0
218 216 217 0
-219 28 0
-219 218 0
219 -28 -218 0
-220 -181 0
-220 -219 0
220 181 219 0
-221 -28 0
-221 -218 0
221 28 218 0
-222 -220 0
-222 -221 0
222 220 221 0
-223 29 0
-223 222 0
223 -29 -222 0
-224 -180 0
-224 -223 0
224 180 223 0
-225 -29 0
-225 -222 0
225 29 222 0
-226 -224 0
-226 -225 0
226 224 225 0
-227 30 0
-227 226 0
227 -30 -226 0
-228 -179 0
-228 -227 0
228 179 227 0
-229 -30 0
-229 -226 0
229 30 226 0
-230 -228 0
-230 -229 0
230 228 229 0
-231 31 0
-231 230 0
231 -31 -230 0
-232 -178 0
-232 -231 0
232 178 231 0
-233 -31 0
-233 -230 0
233 31 230 0
-234 -232 0
-234 -233 0
234 232 233 0
-235 32 0
-235 234 0
235 -32 -234 0
-236 -177 0
-236 -235 0
236 177 235 0
-237 -32 0
-237 -234 0
237 32 234 0
-238 -236 0
-238 -237 0
238 236 237 0
-239 33 0
-239 238 0
239 -33 -238 0
-240 -176 0
-240 -239 0
240 176 239 0
-241 -33 0
-241 -238 0
241 33 238 0
-242 -240 0
-242 -241 0
242 240 241 0
-243 34 0
-243 242 0
243 -34 -242 0
-244 -175 0
-244 -243 0
244 175 243 0
-245 -34 0
-245 -242 0
245 34 242 0
-246 -244 0
-246 -245 0
246 244 245 0
-247 35 0
-247 246 0
247 -35 -246 0
-248 -174 0
-248 -247 0
248 174 247 0
-249 -35 0
-249 -246 0
249 35 246 0
-250 -248 0
-250 -249 0
250 248 249 0
-251 36 0
-251 250 0
251 -36 -250 0
-252 -173 0
-252 -251 0
252 173 251 0
-253 -36 0
-253 -250 0
253 36 250 0
-254 -252 0
-254 -253 0
254 252 253 0
-255 37 0
-255 254 0
255 -37 -254 0
-256 -172 0
-256 -255 0
256 172 255 0
-257 -37 0
-257 -254 0
257 37 254 0
-258 -256 0
-258 -257 0
258 256 257 0
-259 38 0
-259 258 0
259 -38 -258 0
-260 -171 0
-260 -259 0
260 171 259 0
-261 -38 0
-261 -258 0
261 38 258 0
-262 -260 0
-262 -261 0
262 260 261 0
-263 170 0
-263 -262 0
263 -170 262 0
-264 -170 0
-264 262 0
264 170 -262 0
-265 -263 0
-265 -264 0
265 263 264 0
-266 -2 0
-266 1 0
266 2 -1 0
-267 2 0
-267 -1 0
267 -2 1 0
-268 -266 0
-268 -267 0
268 266 267 0
-269 -3 0
-269 -268 0
269 3 268 0
-270 3 0
-270 268 0
270 -3 -268 0
-271 -269 0
-271 -270 0
271 269 270 0
-272 -4 0
-272 -271 0
272 4 271 0
-273 4 0
-273 271 0
273 -4 -271 0
-274 -272 0
-274 -273 0
274 272 273 0
-275 -5 0
-275 -274 0
275 5 274 0
-276 5 0
-276 274 0
276 -5 -274 0
-277 -275 0
-277 -276 0
277 275 276 0
-278 -6 0
-278 -277 0
278 6 277 0
-279 6 0
-279 277 0
279 -6 -277 0
-280 -278 0
-280 -279 0
280 278 279 0
-281 -7 0
-281 -280 0
281 7 280 0
-282 7 0
-282 280 0
282 -7 -280 0
-283 -281 0
-283 -282 0
283 281 282 0
-284 -8 0
-284 -283 0
284 8 283 0
-285 8 0
-285 283 0
285 -8 -283 0
-286 -284 0
-286 -285 0
286 284 285 0
-287 -9 0
-287 -286 0
287 9 286 0
-288 9 0
-288 286 0
288 -9 -286 0
-289 -287 0
-289 -288 0
289 287 288 0
-290 -10 0
-290 -289 0
290 10 289 0
-291 10 0
-291 289 0
291 -10 -289 0
-292 -290 0
-292 -291 0
292 290 291 0
-293 -11 0
-293 -292 0
293 11 292 0
-294 11 0
-294 292 0
294 -11 -292 0
-295 -293 0
-295 -294 0
295 293 294 0
-296 -12 0
-296 -295 0
296 12 295 0
-297 12 0
-297 295 0
297 -12 -295 0
-298 -296 0
-298 -297 0
298 296 297 0
-299 -13 0
-299 -298 0
299 13 298 0
-300 13 0
-300 298 0
300 -13 -298 0
-301 -299 0
-301 -300 0
301 299 300 0
-302 -14 0
-302 -301 0
302 14 301 0
-303 14 0
-303 301 0
303 -14 -301 0
-304 -302 0
-304 -303 0
304 302 303 0
-305 -15 0
-305 -304 0
305 15 304 0
-306 15 0
-306 304 0
306 -15 -304 0
-307 -305 0
-307 -306 0
307 305 306 0
-308 -16 0
-308 -307 0
308 16 307 0
-309 16 0
-309 307 0
309 -16 -307 0
-310 -308 0
-310 -309 0
310 308 309 0
-311 -17 0
-311 -310 0
311 17 310 0
-312 17 0
-312 310 0
312 -17 -310 0
-313 -311 0
-313 -312 0
313 311 312 0
-314 -18 0
-314 -313 0
314 18 313 0
-315 18 0
-315 313 0
315 -18 -313 0
-316 -314 0
-316 -315 0
316 314 315 0
-317 -19 0
-317 -316 0
317 19 316 0
-318 19 0
-318 316 0
318 -19 -316 0
-319 -317 0
-319 -318 0
319 317 318 0
-320 170 0
-320 -319 0
320 -170 319 0
-321 -265 0
-321 -320 0
321 265 320 0
-322 -80 0
-322 321 0
322 80 -321 0
-323 80 0
-323 -321 0
323 -80 321 0
-324 -322 0
-324 -323 0
324 322 323 0
-325 -247 0
-325 -249 0
325 247 249 0
-326 -320 0
-326 325 0
326 320 -325 0
-327 174 0
-327 326 0
327 -174 -326 0
-328 -174 0
-328 -326 0
328 174 326 0
-329 -327 0
-329 -328 0
329 327 328 0
-330 -76 0
-330 329 0
330 76 -329 0
-331 76 0
-331 -329 0
331 -76 329 0
-332 -330 0
-332 -331 0
332 330 331 0
-333 -251 0
-333 -253 0
333 251 253 0
-334 -320 0
-334 333 0
334 320 -333 0
-335 173 0
-335 334 0
335 -173 -334 0
-336 -173 0
-336 -334 0
336 173 334 0
-337 -335 0
-337 -336 0
337 335 336 0
-338 -77 0
-338 337 0
338 77 -337 0
-339 77 0
-339 -337 0
339 -77 337 0
-340 -338 0
-340 -339 0
340 338 339 0
-341 332 0
-341 340 0
341 -332 -340 0
-342 -255 0
-342 -257 0
342 255 257 0
-343 -320 0
-343 342 0
343 320 -342 0
-344 172 0
-344 343 0
344 -172 -343 0
-345 -172 0
-345 -343 0
345 172 343 0
-346 -344 0
-346 -345 0
346 344 345 0
-347 -78 0
-347 346 0
347 78 -346 0
-348 78 0
-348 -346 0
348 -78 346 0
-349 -347 0
-349 -348 0
349 347 348 0
-350 -259 0
-350 -261 0
350 259 261 0
-351 -320 0
-351 350 0
351 320 -350 0
-352 171 0
-352 351 0
352 -171 -351 0
-353 -171 0
-353 -351 0
353 171 351 0
-354 -352 0
-354 -353 0
354 352 353 0
-355 -79 0
-355 354 0
355 79 -354 0
-356 79 0
-356 -354 0
356 -79 354 0
-357 -355 0
-357 -356 0
357 355 356 0
-358 349 0
-358 357 0
358 -349 -357 0
-359 341 0
-359 358 0
359 -341 -358 0
-360 324 0
-360 359 0
360 -324 -359 0
-361 20 0
-361 -320 0
361 -20 320 0
-362 -189 0
-362 361 0
362 189 -361 0
-363 189 0
-363 -361 0
363 -189 361 0
-364 -362 0
-364 -363 0
364 362 363 0
-365 -61 0
-365 -364 0
365 61 364 0
-366 61 0
-366 364 0
366 -61 -364 0
-367 -365 0
-367 -366 0
367 365 366 0
-368 60 0
-368 367 0
368 -60 -367 0
-369 -191 0
-369 -193 0
369 191 193 0
-370 -320 0
-370 369 0
370 320 -369 0
-371 188 0
-371 370 0
371 -188 -370 0
-372 -188 0
-372 -370 0
372 188 370 0
-373 -371 0
-373 -372 0
373 371 372 0
-374 -62 0
-374 373 0
374 62 -373 0
-375 62 0
-375 -373 0
375 -62 373 0
-376 -374 0
-376 -375 0
376 374 375 0
-377 -195 0
-377 -197 0
377 195 197 0
-378 -320 0
-378 377 0
378 320 -377 0
-379 187 0
-379 378 0
379 -187 -378 0
-380 -187 0
-380 -378 0
380 187 378 0
-381 -379 0
-381 -380 0
381 379 380 0
-382 -63 0
-382 381 0
382 63 -381 0
-383 63 0
-383 -381 0
383 -63 381 0
-384 -382 0
-384 -383 0
384 382 383 0
-385 376 0
-385 384 0
385 -376 -384 0
-386 368 0
-386 385 0
386 -368 -385 0
-387 -199 0
-387 -201 0
387 199 201 0
-388 -320 0
-388 387 0
388 320 -387 0
-389 186 0
-389 388 0
389 -186 -388 0
-390 -186 0
-390 -388 0
390 186 388 0
-391 -389 0
-391 -390 0
391 389 390 0
-392 -64 0
-392 391 0
392 64 -391 0
-393 64 0
-393 -391 0
393 -64 391 0
-394 -392 0
-394 -393 0
394 392 393 0
-395 -203 0
-395 -205 0
395 203 205 0
-396 -320 0
-396 395 0
396 320 -395 0
-397 185 0
-397 396 0
397 -185 -396 0
-398 -185 0
-398 -396 0
398 185 396 0
-399 -397 0
-399 -398 0
399 397 398 0
-400 -65 0
-400 399 0
400 65 -399 0
-401 65 0
-401 -399 0
401 -65 399 0
-402 -400 0
-402 -401 0
402 400 401 0
-403 394 0
-403 402 0
403 -394 -402 0
-404 -207 0
-404 -209 0
404 207 209 0
-405 -320 0
-405 404 0
405 320 -404 0
-406 184 0
-406 405 0
406 -184 -405 0
-407 -184 0
-407 -405 0
407 184 405 0
-408 -406 0
-408 -407 0
408 406 407 0
-409 -66 0
-409 408 0
409 66 -408 0
-410 66 0
-410 -408 0
410 -66 408 0
-411 -409 0
-411 -410 0
411 409 410 0
-412 -211 0
-412 -213 0
412 211 213 0
-413 -320 0
-413 412 0
413 320 -412 0
-414 183 0
-414 413 0
414 -183 -413 0
-415 -183 0
-415 -413 0
415 183 413 0
-416 -414 0
-416 -415 0
416 414 415 0
-417 -67 0
-417 416 0
417 67 -416 0
-418 67 0
-418 -416 0
418 -67 416 0
-419 -417 0
-419 -418 0
419 417 418 0
-420 411 0
-420 419 0
420 -411 -419 0
-421 403 0
-421 420 0
421 -403 -420 0
-422 386 0
-422 421 0
422 -386 -421 0
-423 -215 0
-423 -217 0
423 215 217 0
-424 -320 0
-424 423 0
424 320 -423 0
-425 182 0
-425 424 0
425 -182 -424 0
-426 -182 0
-426 -424 0
426 182 424 0
-427 -425 0
-427 -426 0
427 425 426 0
-428 -68 0
-428 427 0
428 68 -427 0
-429 68 0
-429 -427 0
429 -68 427 0
-430 -428 0
-430 -429 0
430 428 429 0
-431 -219 0
-431 -221 0
431 219 221 0
-432 -320 0
-432 431 0
432 320 -431 0
-433 181 0
-433 432 0
433 -181 -432 0
-434 -181 0
-434 -432 0
434 181 432 0
-435 -433 0
-435 -434 0
435 433 434 0
-436 -69 0
-436 435 0
436 69 -435 0
-437 69 0
-437 -435 0
437 -69 435 0
-438 -436 0
-438 -437 0
438 436 437 0
-439 430 0
-439 438 0
439 -430 -438 0
-440 -223 0
-440 -225 0
440 223 225 0
-441 -320 0
-441 440 0
441 320 -440 0
-442 180 0
-442 441 0
442 -180 -441 0
-443 -180 0
-443 -441 0
443 180 441 0
-444 -442 0
-444 -443 0
444 442 443 0
-445 -70 0
-445 444 0
445 70 -444 0
-446 70 0
-446 -444 0
446 -70 444 0
-447 -445 0
-447 -446 0
447 445 446 0
-448 -227 0
-448 -229 0
448 227 229 0
-449 -320 0
-449 448 0
449 320 -448 0
-450 179 0
-450 449 0
450 -179 -449 0
-451 -179 0
-451 -449 0
451 179 449 0
-452 -450 0
-452 -451 0
452 450 451 0
-453 -71 0
-453 452 0
453 71 -452 0
-454 71 0
-454 -452 0
454 -71 452 0
-455 -453 0
-455 -454 0
455 453 454 0
-456 447 0
-456 455 0
456 -447 -455 0
-457 439 0
-457 456 0
457 -439 -456 0
-458 -231 0
-458 -233 0
458 231 233 0
-459 -320 0
-459 458 0
459 320 -458 0
-460 178 0
-460 459 0
460 -178 -459 0
-461 -178 0
-461 -459 0
461 178 459 0
-462 -460 0
-462 -461 0
462 460 461 0
-463 -72 0
-463 462 0
463 72 -462 0
-464 72 0
-464 -462 0
464 -72 462 0
-465 -463 0
-465 -464 0
465 463 464 0
-466 -235 0
-466 -237 0
466 235 237 0
-467 -320 0
-467 466 0
467 320 -466 0
-468 177 0
-468 467 0
468 -177 -467 0
-469 -177 0
-469 -467 0
469 177 467 0
-470 -468 0
-470 -469 0
470 468 469 0
-471 -73 0
-471 470 0
471 73 -470 0
-472 73 0
-472 -470 0
472 -73 470 0
-473 -471 0
-473 -472 0
473 471 472 0
-474 465 0
-474 473 0
474 -465 -473 0
-475 -239 0
-475 -241 0
475 239 241 0
-476 -320 0
-476 475 0
476 320 -475 0
-477 176 0
-477 476 0
477 -176 -476 0
-478 -176 0
-478 -476 0
478 176 476 0
-479 -477 0
-479 -478 0
479 477 478 0
-480 -74 0
-480 479 0
480 74 -479 0
-481 74 0
-481 -479 0
481 -74 479 0
-482 -480 0
-482 -481 0
482 480 481 0
-483 -243 0
-483 -245 0
483 243 245 0
-484 -320 0
-484 483 0
484 320 -483 0
-485 175 0
-485 484 0
485 -175 -484 0
-486 -175 0
-486 -484 0
486 175 484 0
-487 -485 0
-487 -486 0
487 485 486 0
-488 -75 0
-488 487 0
488 75 -487 0
-489 75 0
-489 -487 0
489 -75 487 0
-490 -488 0
-490 -489 0
490 488 489 0
-491 482 0
-491 490 0
491 -482 -490 0
-492 474 0
-492 491 0
492 -474 -491 0
-493 457 0
-493 492 0
493 -457 -492 0
-494 422 0
-494 493 0
494 -422 -493 0
-495 360 0
-495 494 0
495 -360 -494 0
-496 495 0
-496 167 0
496 -495 -167 0
-497 40 0
-497 188 0
497 -40 -188 0
-498 187 0
-498 497 0
498 -187 -497 0
-499 186 0
-499 498 0
499 -186 -498 0
-500 185 0
-500 499 0
500 -185 -499 0
-501 184 0
-501 500 0
501 -184 -500 0
-502 183 0
-502 501 0
502 -183 -501 0
-503 182 0
-503 502 0
503 -182 -502 0
-504 181 0
-504 503 0
504 -181 -503 0
-505 180 0
-505 504 0
505 -180 -504 0
-506 179 0
-506 505 0
506 -179 -505 0
-507 178 0
-507 506 0
507 -178 -506 0
-508 177 0
-508 507 0
508 -177 -507 0
-509 176 0
-509 508 0
509 -176 -508 0
-510 175 0
-510 509 0
510 -175 -509 0
-511 174 0
-511 510 0
511 -174 -510 0
-512 173 0
-512 511 0
512 -173 -511 0
-513 172 0
-513 512 0
513 -172 -512 0
-514 171 0
-514 513 0
514 -171 -513 0
-515 170 0
-515 514 0
515 -170 -514 0
-516 81 0
-516 515 0
516 -81 -515 0
-517 -56 0
-517 -55 0
517 56 55 0
-518 -58 0
-518 -57 0
518 58 57 0
-519 517 0
-519 518 0
519 -517 -518 0
-520 -59 0
-520 519 0
520 59 -519 0
-521 -40 0
-521 -39 0
521 40 39 0
-522 -42 0
-522 -41 0
522 42 41 0
-523 521 0
-523 522 0
523 -521 -522 0
-524 -44 0
-524 -43 0
524 44 43 0
-525 -46 0
-525 -45 0
525 46 45 0
-526 524 0
-526 525 0
526 -524 -525 0
-527 523 0
-527 526 0
527 -523 -526 0
-528 -48 0
-528 -47 0
528 48 47 0
-529 -50 0
-529 -49 0
529 50 49 0
-530 528 0
-530 529 0
530 -528 -529 0
-531 -52 0
-531 -51 0
531 52 51 0
-532 -54 0
-532 -53 0
532 54 53 0
-533 531 0
-533 532 0
533 -531 -532 0
-534 530 0
-534 533 0
534 -530 -533 0
-535 527 0
-535 534 0
535 -527 -534 0
-536 520 0
-536 535 0
536 -520 -535 0
-537 -81 0
-537 536 0
537 81 -536 0
-538 -516 0
-538 -537 0
538 516 537 0
-539 -496 0
-539 538 0
539 496 -538 0
-540 -169 0
-540 539 0
540 169 -539 0
540 0
